Reading model...
...model read.
creating competitive generators file...
...competitive generators recorded.
Loading data...
.. real-time data read.
Compiling instance...
...instance created.
Creating Offer Mitigation (model will solve as dispatch if TRUE)...
NOTE: storage offers will not be mitigated
...storage offer mitigation file created
Converting model to MPEC...
...converted
NOTE: initial MIP solve with only storage competitive to get feasible solution
Solving...

Welcome to IBM(R) ILOG(R) CPLEX(R) Interactive Optimizer 12.9.0.0
  with Simplex, Mixed Integer & Barrier Optimizers
5725-A06 5725-A29 5724-Y48 5724-Y49 5724-Y54 5724-Y55 5655-Y21
Copyright IBM Corp. 1988, 2019.  All Rights Reserved.

Type 'help' for a list of available commands.
Type 'help' followed by a command name for more
information on commands.

CPLEX> Logfile 'cplex.log' closed.
Logfile 'C:\Users\llavin\Desktop\test826\logs\tmp43ur60ih.cplex.log' open.
CPLEX> New value for parallel optimization mode: -1
CPLEX> New value for emphasis for MIP optimization: 1
CPLEX> New value for mixed integer optimality gap tolerance: 0.01
CPLEX> New value for integrality tolerance: 1e-12
CPLEX> New value for deterministic time limit in ticks: 65000
CPLEX> Problem 'C:\Users\llavin\Desktop\test826\logs\tmpnb00a7dt.pyomo.lp' read.
Read time = 0.48 sec. (28.91 ticks)
CPLEX> Problem name         : C:\Users\llavin\Desktop\test826\logs\tmpnb00a7dt.pyomo.lp
Objective sense      : Maximize
Variables            :  107803  [Nneg: 1,  Box: 44062,  Free: 8928,
                                 Binary: 54812]
Objective nonzeros   :   17502
Linear constraints   :  246963  [Less: 82886,  Greater: 118460,  Equal: 45617]
  Nonzeros           :  620963
  RHS nonzeros       :  135143

Variables            : Min LB: -5000.000        Max UB: 1000000.       
Objective nonzeros   : Min   : 0.008333333      Max   : 180.0000       
Linear constraints   :
  Nonzeros           : Min   : 0.001000000      Max   : 1000000.       
  RHS nonzeros       : Min   : 0.001000000      Max   : 1000000.       
CPLEX> CPXPARAM_Parallel                                -1
CPXPARAM_Emphasis_MIP                            1
CPXPARAM_DetTimeLimit                            65000
CPXPARAM_MIP_Tolerances_MIPGap                   0.01
CPXPARAM_MIP_Tolerances_Integrality              9.9999999999999998e-13
Tried aggregator 3 times.
MIP Presolve eliminated 180282 rows and 40385 columns.
MIP Presolve added 6320 rows and 0 columns.
MIP Presolve modified 50159 coefficients.
Aggregator did 25947 substitutions.
Reduced MIP has 47054 rows, 40007 columns, and 153235 nonzeros.
Reduced MIP has 15748 binaries, 0 generals, 0 SOSs, and 0 indicators.
Presolve time = 0.61 sec. (396.56 ticks)
Probing fixed 790 vars, tightened 13044 bounds.
Probing time = 0.39 sec. (17.08 ticks)
Tried aggregator 2 times.
MIP Presolve eliminated 1791 rows and 1581 columns.
MIP Presolve modified 5602 coefficients.
Aggregator did 48 substitutions.
Reduced MIP has 45215 rows, 38378 columns, and 142929 nonzeros.
Reduced MIP has 14958 binaries, 0 generals, 0 SOSs, and 0 indicators.
Presolve time = 0.23 sec. (231.54 ticks)
Probing fixed 1 vars, tightened 675 bounds.
Probing time = 0.53 sec. (18.42 ticks)
Clique table members: 82084.
MIP emphasis: integer feasibility.
MIP search method: dynamic search.
Parallel mode: opportunistic, using up to 32 threads.
Root relaxation solution time = 0.86 sec. (1765.25 ticks)

        Nodes                                         Cuts/
   Node  Left     Objective  IInf  Best Integer    Best Bound    ItCnt     Gap

      0     0     -578.2326   370                   -578.2326     9542         
      0     0     -578.2326     3                     Cuts: 2     9545         
      0     0     -578.2326     3                     Cuts: 5     9548         
*     0+    0                         -578.2326     -578.2326             0.00%
      0     0        cutoff           -578.2326     -578.2326     9549    0.00%
Elapsed time = 4.36 sec. (3637.94 ticks, tree = 0.01 MB, solutions = 1)

Cover cuts applied:  1
Gomory fractional cuts applied:  2

Root node processing (before b&c):
  Real time             =    4.41 sec. (3641.61 ticks)
Parallel b&c, 32 threads:
  Real time             =    0.00 sec. (0.00 ticks)
  Sync time (average)   =    0.00 sec.
  Wait time (average)   =    0.00 sec.
                          ------------
Total (root+branch&cut) =    4.41 sec. (3641.61 ticks)

Solution pool: 1 solution saved.

MIP - Integer optimal solution:  Objective = -5.7823263662e+02
Solution time =    4.42 sec.  Iterations = 9549  Nodes = 0
Deterministic time = 3641.91 ticks  (823.59 ticks/sec)

CPLEX> Incumbent solution written to file 'C:\Users\llavin\Desktop\test826\logs\tmppvx_66gf.cplex.sol'.
CPLEX> NOTE: no warmstart specified for MIP iteration, default behavior is true
NOTE: resolving with all competitive generators using storage-only solution to warmstart
Solving...

Welcome to IBM(R) ILOG(R) CPLEX(R) Interactive Optimizer 12.9.0.0
  with Simplex, Mixed Integer & Barrier Optimizers
5725-A06 5725-A29 5724-Y48 5724-Y49 5724-Y54 5724-Y55 5655-Y21
Copyright IBM Corp. 1988, 2019.  All Rights Reserved.

Type 'help' for a list of available commands.
Type 'help' followed by a command name for more
information on commands.

CPLEX> Logfile 'cplex.log' closed.
Logfile 'C:\Users\llavin\Desktop\test826\logs\tmpb3qjujnb.cplex.log' open.
CPLEX> New value for parallel optimization mode: -1
CPLEX> New value for emphasis for MIP optimization: 1
CPLEX> New value for mixed integer optimality gap tolerance: 0.01
CPLEX> New value for integrality tolerance: 1e-12
CPLEX> New value for deterministic time limit in ticks: 65000
CPLEX> Problem 'C:\Users\llavin\Desktop\test826\logs\tmpl5gly0m8.pyomo.lp' read.
Read time = 0.48 sec. (28.96 ticks)
CPLEX> MIP start file 'C:\Users\llavin\Desktop\test826\logs\tmp7t9fuo_u.cplex.mst' read.
CPLEX> Problem name         : C:\Users\llavin\Desktop\test826\logs\tmpl5gly0m8.pyomo.lp
Objective sense      : Maximize
Variables            :  109243  [Nneg: 1,  Box: 45502,  Free: 8928,
                                 Binary: 54812]
Objective nonzeros   :   18894
Linear constraints   :  246963  [Less: 82886,  Greater: 118460,  Equal: 45617]
  Nonzeros           :  620963
  RHS nonzeros       :  135143

Variables            : Min LB: -5000.000        Max UB: 1000000.       
Objective nonzeros   : Min   : 0.008333333      Max   : 180.0000       
Linear constraints   :
  Nonzeros           : Min   : 0.001000000      Max   : 1000000.       
  RHS nonzeros       : Min   : 0.001000000      Max   : 1000000.       
CPLEX> CPXPARAM_Parallel                                -1
CPXPARAM_Emphasis_MIP                            1
CPXPARAM_DetTimeLimit                            65000
CPXPARAM_MIP_Tolerances_MIPGap                   0.01
CPXPARAM_MIP_Tolerances_Integrality              9.9999999999999998e-13
Warning:  No solution found from 1 MIP starts.
Retaining values of one MIP start for possible repair.
Tried aggregator 3 times.
MIP Presolve eliminated 180282 rows and 41825 columns.
MIP Presolve added 6320 rows and 0 columns.
MIP Presolve modified 50159 coefficients.
Aggregator did 25947 substitutions.
Reduced MIP has 47054 rows, 40007 columns, and 153235 nonzeros.
Reduced MIP has 15748 binaries, 0 generals, 0 SOSs, and 0 indicators.
Presolve time = 0.58 sec. (397.30 ticks)
Probing fixed 790 vars, tightened 13044 bounds.
Probing time = 0.39 sec. (17.08 ticks)
Tried aggregator 2 times.
MIP Presolve eliminated 1791 rows and 1581 columns.
MIP Presolve modified 5602 coefficients.
Aggregator did 48 substitutions.
Reduced MIP has 45215 rows, 38378 columns, and 142929 nonzeros.
Reduced MIP has 14958 binaries, 0 generals, 0 SOSs, and 0 indicators.
Presolve time = 0.20 sec. (231.55 ticks)
Probing fixed 1 vars, tightened 675 bounds.
Probing time = 0.53 sec. (18.42 ticks)
Clique table members: 82084.
MIP emphasis: integer feasibility.
MIP search method: dynamic search.
Parallel mode: opportunistic, using up to 32 threads.
Root relaxation solution time = 1.08 sec. (1982.99 ticks)

        Nodes                                         Cuts/
   Node  Left     Objective  IInf  Best Integer    Best Bound    ItCnt     Gap

      0     0    28462.4956   528                  28462.4956    10607         
      0     0    27553.9389   475                   Cuts: 383    11439         
      0     0    27243.2680   440                   Cuts: 182    11551         
      0     0    27237.0804   442                    Cuts: 12    11575         
Repair heuristic found nothing.
      0    16    26780.1960   438                    Cuts: 20    11720         
Elapsed time = 9.17 sec. (4873.48 ticks, tree = 0.03 MB, solutions = 0)
    268    95    26076.6509   373                  26939.6709    13053         
    566   405    25745.8611   356                  26939.6709    17598         
    858   712    24972.0850   307                  26939.6709    21671         
   1022   959    24551.3879   296                  26939.6709    24132         
   1300  1050    23578.7267   240                  26939.6709    24982         
   1613  1353    22873.5999   189                  26939.6709    27680         
   1985  1814    22532.3707   169                  26939.6709    31655         
   2339  1711    21865.2229   164                  26939.6709    30880         
   2656  2069    infeasible                        26939.6709    34048         
   4111  2912    infeasible                        26939.6709    48695         
Elapsed time = 30.34 sec. (7984.77 ticks, tree = 33.21 MB, solutions = 0)
   5202  3669     6622.3311    86                  26939.6709    58205         
   6321  4777    -5880.2949    58                  26939.6709    86095         
   7763  5527     9280.3482   248                  26939.6709   104455         
   9089  6072     5999.3880   181                  26939.6709   117920         
  10459  7081     2590.9559   104                  26939.6709   137919         
  11845  7936    12772.4708   270                  26939.6709   156315         
  13273  8995    13498.1630   150                  26939.6709   177909         
  14682 10450    11542.6219   147                  26939.6709   207772         
  16023 12378    18865.1979   225                  26939.6709   243503         
  17356 12178    18868.5725   296                  26939.6709   239833         
Elapsed time = 95.67 sec. (17524.98 ticks, tree = 169.59 MB, solutions = 0)
  18620 13047    16323.6897   230                  26939.6709   255586         
  19853 13890     5711.9971   261                  26939.6709   274548         
  21041 15950    -3490.5061    99                  26939.6709   334165         
  22244 15522    16993.3702   279                  26939.6709   321405         
  23432 17798    17423.5685   277                  26939.6709   390721         
  24681 17899     6446.7644   189                  26939.6709   393269         
  25989 20714    16169.4027   265                  26939.6709   464190         
  27318 19981    -6380.4169   160                  26939.6709   445818         
  28651 21411    15126.2232   229                  26939.6709   481473         
  29922 22733    10912.7636   212                  26939.6709   516810         
Elapsed time = 160.23 sec. (27069.20 ticks, tree = 325.03 MB, solutions = 0)
  31100 25236    16476.9529   270                  26939.6709   585981         
  32320 24484    infeasible                        26939.6709   563992         
  33529 26937    14193.7978   269                  26939.6709   631444         
  34750 26542     3807.5605   169                  26939.6709   619638         
  35959 27257     6070.7896   194                  26939.6709   640828         
  37209 27472    18052.0059   257                  26939.6709   646387         
  38446 29373     5813.9277   156                  26939.6709   694952         
  39723 30759    11591.8064   207                  26939.6709   731923         
  41021 31359    17657.3964   198                  26939.6709   747224         
  42313 32484    17081.5821   268                  26939.6709   772811         
Elapsed time = 225.02 sec. (36612.92 ticks, tree = 697.27 MB, solutions = 0)
  43606 33553    16812.1856   222                  26939.6709   796137         
  44890 36606    16935.5924   226                  26939.6709   863917         
  46190 36344     4863.0825   143                  26939.6709   858510         
  47491 36204    17458.1530   220                  26939.6709   855317         
  48804 37982    11022.0756   209                  26939.6709   896027         
  50232 39301    10261.3083   213                  26939.6709   926487         
  51709 41289   -11742.6992   160                  26939.6709   972140         
  53189 39651   -16090.7682   143                  26939.6709   935267         
  54633 41608    12698.3100   154                  26939.6709   980136         
  56023 45053     9330.0150   177                  26939.6709  1060326         
Elapsed time = 291.91 sec. (46163.79 ticks, tree = 1573.21 MB, solutions = 0)
  57359 43852    15989.3375   137                  26939.6709  1033500         
  58586 48166     8562.9373   132                  26939.6709  1134880         
  59806 44848    15215.1462   142                  26881.6388  1055656         
  61061 45924     6160.1236   147                  26860.5629  1081620         
  62351 50316    13493.7724   265                  26860.5629  1192857         
  63698 49952     6778.0504   124                  26860.5629  1182941         
  65045 49191     9997.4527    95                  26860.5629  1162018         
  66405 52714    12458.2784   162                  26860.5629  1261028         
  67851 53497    12461.1703   169                  26860.5629  1283544         
  69319 55339    17840.1562   215                  26860.5629  1346157         
Elapsed time = 374.86 sec. (55708.15 ticks, tree = 1694.69 MB, solutions = 0)
  70765 53795      303.8200   141                  26860.5629  1293341         
  72188 57264   -27640.5161   292                  26860.5629  1416952         
  73591 55459    infeasible                        26860.5629  1350310         
  74952 56165    18252.7916   312                  26860.5629  1378360         
  76280 56610    19108.8558   315                  26860.5629  1390768         
  77543 59050    14632.8561   119                  26735.0312  1476903         
  78801 60667    14564.3565   284                  26730.6955  1526614         
  79988 60233    19113.0979   313                  26730.6955  1512518         
  81005 60842    17916.3778   279                  26730.6955  1531694         

Cover cuts applied:  46
Flow cuts applied:  350
Mixed integer rounding cuts applied:  21
Gomory fractional cuts applied:  3

Root node processing (before b&c):
  Real time             =    5.97 sec. (4782.02 ticks)
Parallel b&c, 32 threads:
  Real time             =  437.59 sec. (60257.67 ticks)
  Sync time (average)   =    2.62 sec.
  Wait time (average)   =    0.00 sec.
                          ------------
Total (root+branch&cut) =  443.56 sec. (65039.69 ticks)


MIP - Deterministic time limit exceeded, no integer solution.
Current MIP best bound =  2.6646660195e+04 (gap is infinite)
Solution time =  443.61 sec.  Iterations = 1680881  Nodes = 81720 (64073)
Deterministic time = 65040.00 ticks  (146.62 ticks/sec)

CPLEX> CPLEX Error  1217: No solution exists.
No file written.
CPLEX> gap is infinite, so writing 0
Exporting results... 
